Route #1: 1 16 6 40 50 49 43 22 1 
Route #2: 1 1 17 58 10 31 39 1 
Route #3: 1 62 33 12 55 32 44 3 23 1 
Route #4: 1 63 56 42 64 61 15 28 1 
Route #5: 1 2 27 54 5 37 20 36 1 
Route #6: 1 41 47 45 52 46 30 1 
Route #7: 1 21 29 13 35 7 34 4 1 
Route #8: 1 51 19 11 38 25 24 1 
Route #9: 1 18 9 26 53 14 8 1 
Route #10: 1 48 60 57 59 1 

Cost 1362.38
Time 0.9153


 * Another infos *

 Iterations: 65 Time: 0.9153 sec - 0.0153 min - 0.0003 horas
0.0000 h 0.0153 min
Problem dimension: 65
